/*********************************************
 * OPL 12.9.0.0 Data
 * Author: Melanie Reuter-Oppermann
 * Creation Date: 22.06.2020 at 07:04:37
 *********************************************/
 n= 10;
 m= 2;

 T= 600;
 cpr=30;
 r=60;
 
 dist=[120,60,900,1200,300,500,600,1000,2000,850];
 distAED=[[140,160],[100,160],[1300,1000],[1300,1900],[360,500],[600,790],[600,900],[1500,1100],[2200,2050],[890,950]];
 
 M=10000; 
 
 w1=0.4; 
 w2=0.3; 
 w3=0.3;